30
1 0 3
2 0 4
2 1 1
3 0 1
3 1 1
4 0 4
4 1 7
4 2 1
4 3 7
6 1 1
6 2 2
6 5 6
7 0 5
7 2 6
8 1 7
8 3 2
8 5 1
9 0 7
9 3 5
9 4 3
10 2 6
10 3 5
10 5 7
10 6 1
10 8 2
10 9 4
11 1 2
11 3 4
11 5 6
11 7 6
11 9 6
12 0 4
12 5 4
12 7 1
12 9 3
12 10 2
12 11 7
13 0 6
13 1 3
13 4 6
13 12 6
14 2 4
14 3 4
14 4 4
14 6 2
14 7 6
14 8 6
14 13 2
15 0 3
15 2 2
15 5 1
15 6 5
15 12 3
15 13 3
15 14 7
16 0 7
16 1 2
16 2 7
16 3 5
16 7 6
16 8 2
16 12 2
16 14 3
16 15 1
17 1 1
17 2 5
17 3 3
17 4 4
17 7 6
17 8 5
17 10 1
17 12 4
17 13 7
17 14 4
17 15 4
18 0 2
18 3 2
18 4 1
18 5 3
18 14 2
18 15 4
18 16 1
19 0 7
19 1 1
19 4 4
19 5 2
19 8 2
19 9 2
19 10 4
19 11 1
19 12 1
19 13 2
19 14 4
19 15 1
19 16 5
19 17 7
19 18 5
20 0 1
20 1 1
20 4 3
20 5 6
20 6 1
20 12 3
20 13 5
20 15 1
20 17 7
21 0 3
21 3 6
21 4 7
21 12 2
21 13 4
21 16 1
21 18 2
21 20 3
22 1 1
22 2 4
22 3 7
22 5 1
22 6 1
22 8 4
22 13 2
22 14 3
22 16 2
22 17 2
22 18 6
22 21 1
23 0 2
23 3 3
23 4 3
23 5 3
23 7 3
23 9 6
23 10 5
23 12 7
23 13 1
23 14 4
23 19 5
24 1 2
24 5 4
24 7 4
24 9 7
24 15 3
24 17 3
24 18 4
25 1 4
25 2 3
25 3 2
25 4 6
25 5 1
25 7 5
25 8 6
25 11 6
25 15 6
25 19 7
25 23 6
25 24 1
26 0 3
26 3 1
26 6 2
26 8 4
26 9 7
26 10 7
26 13 5
26 16 3
26 20 3
26 21 7
26 22 6
26 24 2
26 25 7
27 1 7
27 2 7
27 5 2
27 6 1
27 14 4
27 16 6
27 19 1
27 22 1
27 23 5
27 25 3
27 26 7
28 1 1
28 2 7
28 3 2
28 4 1
28 5 6
28 8 1
28 9 2
28 12 3
28 14 5
28 15 3
28 16 4
28 20 2
28 22 1
28 23 7
28 24 7
28 25 2
28 27 2
29 1 2
29 2 6
29 3 6
29 6 1
29 8 4
29 9 6
29 11 6
29 12 7
29 15 2
29 19 5
29 21 4
29 22 6
29 26 1
29 27 1
